Data path: /scratch/opt/lxu/CFLG/benchmarks/Kgroup_A
Instance: K100.5.con.red
Result path: /scratch/opt/lxu/CFLG/results/Kgroup_A
Solver: Gurobi
Time limit: 7200
Formulation: LEFPAV
Cover: Large
julia --project=. src/main.jl /scratch/opt/lxu/CFLG/benchmarks/Kgroup_A K100.5.con.red /scratch/opt/lxu/CFLG/results/Kgroup_A Gurobi 7200 LEFPAV Large
The latest version of Julia in the `release` channel is 1.11.6+0.x64.linux.gnu. You currently have `1.11.4+0.x64.linux.gnu` installed. Run:

  juliaup update

in your terminal shell to install Julia 1.11.6+0.x64.linux.gnu and update the `release` channel to that version.
/scratch/opt/lxu/CFLG/benchmarks/Kgroup_A Gurobi 7200.0 /scratch/opt/lxu/CFLG/results/Kgroup_A K100.5.con.red LEFPAV Large
/scratch/opt/lxu/CFLG/benchmarks/Kgroup_A/K100.5.con.red

 read graph
data loaded


after absorb:31 31

max_piece:4
problem_graph/original graph: node: 37/31 edge: 126/120 dlt: 0.3835273439484856 break_avg_len: 0.18263206854689806 break_max_len: 1.0Vbar/V, Ebar/E(37, 37, 126, 126)
Set parameter TokenServer to value "solice01.zib.de"
Set parameter Threads to value 1
Set parameter OutputFlag to value 1
Gurobi Optimizer version 12.0.1 build v12.0.1rc0 (linux64 - "Debian GNU/Linux 12 (bookworm)")

CPU model: Intel(R) Xeon(R) Gold 5122 CPU @ 3.60GHz, instruction set [SSE2|AVX|AVX2|AVX512]
Thread count: 8 physical cores, 16 logical processors, using up to 1 threads

Non-default parameters:
Threads  1

Optimize a model with 163 rows, 378 columns and 630 nonzeros
Model fingerprint: 0x7a7678c4
Coefficient statistics:
  Matrix range     [1e+00, 1e+00]
  Objective range  [1e+00, 1e+00]
  Bounds range     [1e+00, 1e+00]
  RHS range        [1e+00, 1e+00]
Presolve removed 12 rows and 18 columns
Presolve time: 0.00s
Presolved: 151 rows, 360 columns, 600 nonzeros

Iteration    Objective       Primal Inf.    Dual Inf.      Time
       0    1.2600000e+02   1.550000e+02   0.000000e+00      0s
     110    3.7000000e+01   0.000000e+00   0.000000e+00      0s

Solved in 110 iterations and 0.00 seconds (0.00 work units)
Optimal objective  3.700000000e+01

User-callback calls 186, time in user-callback 0.00 sec
elapsed CPU time: 1.051828 seconds
Set parameter TokenServer to value "solice01.zib.de"
Set parameter Threads to value 1
Set parameter OutputFlag to value 1
Set parameter MIPGap to value 0.0001
Set parameter TimeLimit to value 7198.948172

 more cuts: false 0.3835273439484856 false
is_attach:trueformulation:LEFPAV1 125 35
Set parameter PreCrush to value 1

 model loaded

Gurobi Optimizer version 12.0.1 build v12.0.1rc0 (linux64 - "Debian GNU/Linux 12 (bookworm)")

CPU model: Intel(R) Xeon(R) Gold 5122 CPU @ 3.60GHz, instruction set [SSE2|AVX|AVX2|AVX512]
Thread count: 8 physical cores, 16 logical processors, using up to 1 threads

Non-default parameters:
TimeLimit  7198.948172
PreCrush  1
Threads  1

Optimize a model with 9499 rows, 4699 columns and 27912 nonzeros
Model fingerprint: 0x5bb0215c
Variable types: 289 continuous, 4410 integer (4410 binary)
Coefficient statistics:
  Matrix range     [1e-06, 1e+00]
  Objective range  [1e+00, 1e+00]
  Bounds range     [2e-02, 1e+00]
  RHS range        [2e-02, 1e+01]
Presolve removed 2265 rows and 291 columns
Presolve time: 0.07s
Presolved: 7234 rows, 4408 columns, 24643 nonzeros
Variable types: 164 continuous, 4244 integer (4244 binary)
Found heuristic solution: objective 126.0000000
Found heuristic solution: objective 70.0000000

Root relaxation: objective 4.090085e+00, 2468 iterations, 0.10 seconds (0.17 work units)

    Nodes    |    Current Node    |     Objective Bounds      |     Work
 Expl Unexpl |  Obj  Depth IntInf | Incumbent    BestBd   Gap | It/Node Time

     0     0    4.09008    0  119   70.00000    4.09008  94.2%     -    0s
H    0     0                      61.0000000    4.09008  93.3%     -    0s
H    0     0                      17.0000000    4.09008  75.9%     -    0s
H    0     0                      16.0000000    4.09008  74.4%     -    0s
H    0     0                      14.0000000    4.09008  70.8%     -    0s
H    0     0                      13.0000000    4.09008  68.5%     -    0s
H    0     0                      12.0000000    4.09008  65.9%     -    0s
H    0     0                      11.0000000    4.09008  62.8%     -    0s
H    0     0                      10.0000000    4.09008  59.1%     -    0s
elapsed CPU time: 0.518284 seconds
     0     0    4.10143    0  167   10.00000    4.10143  59.0%     -    1s
H    0     0                       9.0000000    4.10143  54.4%     -    1s
H    0     0                       8.0000000    4.10143  48.7%     -    1s
elapsed CPU time: 1.382395196993442e13 seconds
     0     0    5.00000    0  128    8.00000    5.00000  37.5%     -    1s
elapsed CPU time: 4.084569733104859e9 seconds
     0     0    5.00000    0  127    8.00000    5.00000  37.5%     -    1s
elapsed CPU time: 1.378453105498971e13 seconds
     0     0    5.00000    0  158    8.00000    5.00000  37.5%     -    1s
elapsed CPU time: 1.3854283707583602e13 seconds
     0     0    5.00000    0  165    8.00000    5.00000  37.5%     -    2s
elapsed CPU time: 1.844673609366035e13 seconds
     0     0    5.00000    0   89    8.00000    5.00000  37.5%     -    2s
elapsed CPU time: 0.0412 seconds
elapsed CPU time: 1.3692355776601e7 seconds
     0     2    5.00000    0   57    8.00000    5.00000  37.5%     -    2s
   104    98    6.00000   15   62    8.00000    5.00000  37.5%   163    5s
   429   346    5.66574   23  109    8.00000    5.00000  37.5%   109   10s
   581   470    6.00000   52   89    8.00000    5.00000  37.5%  98.4   15s
   592   477    6.55199   53  166    8.00000    5.47368  31.6%  96.6   20s
H  593   453                       7.0000000    5.61290  19.8%  96.4   21s
   603   460    5.94793    7  196    7.00000    5.64964  19.3%  94.8   25s
   615   468    7.00000   33  269    7.00000    6.00000  14.3%  93.0   30s
   630   479    7.00000   68  188    7.00000    6.00000  14.3%   368   35s
   642   487    6.00000    6   65    7.00000    6.00000  14.3%   361   40s
   654   496    6.00000    9   89    7.00000    6.00000  14.3%   506   45s
   667   505    6.64296   44   39    7.00000    6.00000  14.3%   496   50s
   707   519    6.00000   42  100    7.00000    6.00000  14.3%   585   55s
   753   512    6.00000   43  157    7.00000    6.00000  14.3%   593   60s
   814   494    6.00000   42   79    7.00000    6.00000  14.3%   615   65s
   856   486    6.00000   52   82    7.00000    6.00000  14.3%   631   70s
   903   464    6.00000   50  110    7.00000    6.00000  14.3%   651   75s
   947   441    6.00000   41  199    7.00000    6.00000  14.3%   651   80s
   986   420 infeasible   40         7.00000    6.00000  14.3%   677   85s
  1016   411    6.00000   42  104    7.00000    6.00000  14.3%   711   90s
  1053   407    6.00000   62  101    7.00000    6.00000  14.3%   720   95s
  1086   393    6.00000   48  136    7.00000    6.00000  14.3%   730  100s
  1130   364 infeasible   41         7.00000    6.00000  14.3%   736  105s

Cutting planes:
  Learned: 3
  Gomory: 1
  Cover: 35
  Implied bound: 5
  Clique: 10
  MIR: 48
  Mixing: 1
  StrongCG: 8
  Flow cover: 97
  GUB cover: 12
  Zero half: 1
  RLT: 8
  Relax-and-lift: 29
  BQP: 1

Explored 1141 nodes (859660 simplex iterations) in 105.15 seconds (133.08 work units)
Thread count was 1 (of 16 available processors)

Solution count 10: 7 7 8 ... 12

Optimal solution found (tolerance 1.00e-04)
Best objective 7.000000000000e+00, best bound 7.000000000000e+00, gap 0.0000%

User-callback calls 36516, time in user-callback 1.47 sec

 sepatime5.991360108825752e13 55654 8
7.0
Stat(MathOptInterface.OPTIMAL, 7.0, 7.0, 0.0, 5.991360108825752e13, 1.051828, 105.1469669342041, 1141, Main.CFLG.LEFPAV, "", #undef)
